148202
0,86,43,65,58,9,26,27,57,75,73,13,46,60,74,34,102,3,14,42,78,90,59,95,77,2,93,69,100,104,37,103,94,70,53,66,40,10,84,47,35,72,38,48,36,32,52,83,6,17,31,62,50,99,81,71,1,21,61,24,44,98,67,18,80,85,45,76,20,16,89,63,15,39,55,19,29,28,54,4,51,64,30,96,7,105,97,12,87,5,68,41,8,91,22,11,92,88,79,56,82,33,25,49,101,23,0